c number of pigeons = 6 ; number of holes = 5
p cnf 30 156
1 2 3 4 5 0
6 7 8 9 10 0
11 12 13 14 15 0
16 17 18 19 20 0
21 22 23 24 25 0
26 27 28 29 30 0
-1 -6 0
-1 -11 0
-1 -16 0
-1 -21 0
-1 -26 0
-6 -1 0
-6 -11 0
-6 -16 0
-6 -21 0
-6 -26 0
-11 -1 0
-11 -6 0
-11 -16 0
-11 -21 0
-11 -26 0
-16 -1 0
-16 -6 0
-16 -11 0
-16 -21 0
-16 -26 0
-21 -1 0
-21 -6 0
-21 -11 0
-21 -16 0
-21 -26 0
-26 -1 0
-26 -6 0
-26 -11 0
-26 -16 0
-26 -21 0
-2 -7 0
-2 -12 0
-2 -17 0
-2 -22 0
-2 -27 0
-7 -2 0
-7 -12 0
-7 -17 0
-7 -22 0
-7 -27 0
-12 -2 0
-12 -7 0
-12 -17 0
-12 -22 0
-12 -27 0
-17 -2 0
-17 -7 0
-17 -12 0
-17 -22 0
-17 -27 0
-22 -2 0
-22 -7 0
-22 -12 0
-22 -17 0
-22 -27 0
-27 -2 0
-27 -7 0
-27 -12 0
-27 -17 0
-27 -22 0
-3 -8 0
-3 -13 0
-3 -18 0
-3 -23 0
-3 -28 0
-8 -3 0
-8 -13 0
-8 -18 0
-8 -23 0
-8 -28 0
-13 -3 0
-13 -8 0
-13 -18 0
-13 -23 0
-13 -28 0
-18 -3 0
-18 -8 0
-18 -13 0
-18 -23 0
-18 -28 0
-23 -3 0
-23 -8 0
-23 -13 0
-23 -18 0
-23 -28 0
-28 -3 0
-28 -8 0
-28 -13 0
-28 -18 0
-28 -23 0
-4 -9 0
-4 -14 0
-4 -19 0
-4 -24 0
-4 -29 0
-9 -4 0
-9 -14 0
-9 -19 0
-9 -24 0
-9 -29 0
-14 -4 0
-14 -9 0
-14 -19 0
-14 -24 0
-14 -29 0
-19 -4 0
-19 -9 0
-19 -14 0
-19 -24 0
-19 -29 0
-24 -4 0
-24 -9 0
-24 -14 0
-24 -19 0
-24 -29 0
-29 -4 0
-29 -9 0
-29 -14 0
-29 -19 0
-29 -24 0
-5 -10 0
-5 -15 0
-5 -20 0
-5 -25 0
-5 -30 0
-10 -5 0
-10 -15 0
-10 -20 0
-10 -25 0
-10 -30 0
-15 -5 0
-15 -10 0
-15 -20 0
-15 -25 0
-15 -30 0
-20 -5 0
-20 -10 0
-20 -15 0
-20 -25 0
-20 -30 0
-25 -5 0
-25 -10 0
-25 -15 0
-25 -20 0
-25 -30 0
-30 -5 0
-30 -10 0
-30 -15 0
-30 -20 0
-30 -25 0